c turning on binary mode checking
c parsing input formula with 202048 variables and 780985 clauses
c finished parsing, read 2276926 bytes from proof file
c detected empty clause; start verification via backward checking
c 3047 of 780985 clauses in core                            
c 1026 of 88529 lemmas in core using 31686 resolution steps
c 0 RAT lemmas in core; 101 redundant literals in core lemmas
s VERIFIED
c verification time: 0.977 seconds
